SCIP Status        : solving was interrupted [time limit reached]
Total Time         :    3600.01
  solving          :    3600.01
  presolving       :       0.09 (included in solving)
  reading          :       0.00
  copying          :       0.25 (55 #copies) (minimal 0.00, maximal 0.01, average 0.00)
Original Problem   :
  Problem name     : multiplants_stg1c
  Variables        : 477 (252 binary, 0 integer, 0 implicit integer, 225 continuous)
  Constraints      : 270 initial, 270 maximal
  Objective        : maximize, 1 non-zeros (abs.min = 1, abs.max = 1)
Presolved Problem  :
  Problem name     : t_multiplants_stg1c
  Variables        : 484 (251 binary, 0 integer, 0 implicit integer, 233 continuous)
  Constraints      : 269 initial, 897 maximal
  Objective        : minimize, 1 non-zeros (abs.min = 1, abs.max = 1)
  Nonzeros         : 1719 constraint, 1872 clique table
Presolvers         :   ExecTime  SetupTime  Calls  FixedVars   AggrVars   ChgTypes  ChgBounds   AddHoles    DelCons    AddCons   ChgSides   ChgCoefs
  boundshift       :       0.00       0.00      0          0          0          0          0          0          0          0          0          0
  convertinttobin  :       0.00       0.00      0          0          0          0          0          0          0          0          0          0
  domcol           :       0.00       0.00      1          0          0          0          0          0          0          0          0          0
  dualagg          :       0.00       0.00      0          0          0          0          0          0          0          0          0          0
  dualcomp         :       0.00       0.00      1          0          0          0          0          0          0          0          0          0
  dualinfer        :       0.00       0.00      0          0          0          0          0          0          0          0          0          0
  dualsparsify     :       0.00       0.00      1          0          0          0          0          0          0          0          0          0
  gateextraction   :       0.00       0.00      0          0          0          0          0          0          0          0          0          0
  implics          :       0.00       0.00      2          0          0          0          0          0          0          0          0          0
  inttobinary      :       0.00       0.00      0          0          0          0          0          0          0          0          0          0
  qpkktref         :       0.00       0.00      0          0          0          0          0          0          0          0          0          0
  redvub           :       0.00       0.00      0          0          0          0          0          0          0          0          0          0
  sparsify         :       0.00       0.00      1          0          0          0          0          0          0          0          0          0
  stuffing         :       0.00       0.00      0          0          0          0          0          0          0          0          0          0
  trivial          :       0.00       0.00      3         85          0          0          0          0          0          0          0          0
  tworowbnd        :       0.00       0.00      0          0          0          0          0          0          0          0          0          0
  dualfix          :       0.00       0.00      3          0          0          0          0          0          0          0          0          0
  genvbounds       :       0.00       0.00      0          0          0          0          0          0          0          0          0          0
  probing          :       0.08       0.00      1          0          0          0          0          0          0          0          0          0
  pseudoobj        :       0.00       0.00      0          0          0          0          0          0          0          0          0          0
  symmetry         :       0.00       0.00      1          0          0          0          0          0          0          0          0          0
  vbounds          :       0.00       0.00      1          0          0          0          0          0          0          0          0          0
  varbound         :       0.00       0.00      2          0          0          0          0          0          0          0          0          0
  knapsack         :       0.00       0.00      3          0          0          0          0          0          0          0          0          0
  setppc           :       0.00       0.00      3          0          0          0          0          0          0          0          0          0
  linear           :       0.00       0.00      5          0          1          0          3          0          1          0          0          0
  logicor          :       0.00       0.00      0          0          0          0          0          0          0          0          0          0
  bounddisjunction :       0.00       0.00      0          0          0          0          0          0          0          0          0          0
  nonlinear        :       0.01       0.00      6          0          0          0          2          0          0          0          0          0
  benders          :       0.00       0.00      0          0          0          0          0          0          0          0          0          0
  components       :       0.00       0.00      1          0          0          0          0          0          0          0          0          0
  root node        :          -          -      -          0          -          -         75          -          -          -          -          -
Constraints        :     Number  MaxNumber  #Separate #Propagate    #EnfoLP    #EnfoRelax  #EnfoPS    #Check   #ResProp    Cutoffs    DomReds       Cuts    Applied      Conss   Children
  benderslp        :          0          0          0          0     201482          0      10087     167812          0          0          0          0          0          0          0
  integral         :          0          0          0          0     201482          0          0     167812          0          0      41884          0          0       2577     141108
  varbound         :         84         84          9     849063          0          0       6398     167808       1816         17     297225          0          0          0          0
  knapsack         :          2+        41          9     865203          0          0       9894     153878      15049        427     431017          0          0          0          0
  setppc           :          4+       170          9     911109          0          0       6523     153787      15472        157      98312          0          0          0          0
  linear           :        157+       184          9     929260          0          0       3425     153717      21165       2551    2119660          0          0          0          0
  logicor          :          0+       530          9     163717          0          0          0          0       2260        124      31842          0          0          0          0
  bounddisjunction :          0+        74          0      57157          0          0          0          0          5          4      17919          0          0          0          0
  nonlinear        :         22         22     914448     926582     126512          0      10087     152580          0        594    3618658    5805914    3536185          0     240638
  benders          :          0          0          0          0          0          0      10087          7          0          0          0          0          0          0          0
  countsols        :          0          0          0          0          0          0      10087          7          0          0          0          0          0          0          0
  components       :          0          0          0          0          0          0          0          0          0          0          0          0          0          0          0
Constraint Timings :  TotalTime  SetupTime   Separate  Propagate     EnfoLP     EnfoPS     EnfoRelax   Check    ResProp    SB-Prop
  benderslp        :       0.08       0.00       0.00       0.00       0.07       0.00       0.00       0.01       0.00       0.00
  integral         :      43.58       0.00       0.00       0.00      43.49       0.00       0.00       0.09       0.00       0.00
  varbound         :       2.75       0.00       0.00       1.52       0.00       0.02       0.00       0.81       0.00       0.40
  knapsack         :       6.36       0.00       0.00       4.70       0.00       0.01       0.00       0.03       0.02       1.60
  setppc           :       1.47       0.00       0.00       1.16       0.00       0.01       0.00       0.03       0.00       0.27
  linear           :      14.45       0.00       0.00      12.20       0.00       0.02       0.00       0.32       0.02       1.89
  logicor          :       1.87       0.00       0.00       1.61       0.00       0.00       0.00       0.00       0.00       0.26
  bounddisjunction :       0.34       0.00       0.00       0.30       0.00       0.00       0.00       0.00       0.00       0.04
  nonlinear        :    2119.76       0.00    1780.51      71.41     256.24       0.57       0.00       3.96       0.00       7.08
  benders          :       0.00       0.00       0.00       0.00       0.00       0.00       0.00       0.00       0.00       0.00
  countsols        :       0.00       0.00       0.00       0.00       0.00       0.00       0.00       0.00       0.00       0.00
  components       :       0.09       0.00       0.00       0.08       0.00       0.00       0.00       0.00       0.00       0.01
Propagators        : #Propagate   #ResProp    Cutoffs    DomReds
  dualfix          :          2          0          0          0
  genvbounds       :     182578          0          0        258
  nlobbt           :          0          0          0          0
  obbt             :          1          0          0          0
  probing          :          0          0          0          0
  pseudoobj        :     968476          0          0         24
  redcost          :     994785          0          0      21658
  rootredcost      :          7          0          0          5
  symmetry         :          0          0          0          0
  vbounds          :     337388          0          0          0
Propagator Timings :  TotalTime  SetupTime   Presolve  Propagate    ResProp    SB-Prop
  dualfix          :       0.00       0.00       0.00       0.00       0.00       0.00
  genvbounds       :       1.32       0.00       0.00       1.29       0.00       0.02
  nlobbt           :       0.00       0.00       0.00       0.00       0.00       0.00
  obbt             :       0.19       0.00       0.00       0.19       0.00       0.00
  probing          :       0.08       0.00       0.08       0.00       0.00       0.00
  pseudoobj        :       0.63       0.00       0.00       0.62       0.00       0.01
  redcost          :       3.73       0.00       0.00       3.72       0.00       0.01
  rootredcost      :       0.30       0.00       0.00       0.28       0.00       0.02
  symmetry         :       0.12       0.00       0.00       0.11       0.00       0.01
  vbounds          :       0.78       0.00       0.00       0.72       0.00       0.05
Conflict Analysis  :       Time      Calls    Success    DomReds  Conflicts   Literals    Reconvs ReconvLits   Dualrays   Nonzeros   LP Iters   (pool size: [10000,10000])
  propagation      :       0.06       2418       2391          -       6344        9.9        153        5.3          -          -          -
  infeasible LP    :       0.90      11823       1558          -       1463       10.0         37        5.2       1545       47.4          0
  bound exceed. LP :       3.15      15887          0          -          0        0.0          0        0.0          0        0.0          0
  strong branching :       0.00          0          0          -          0        0.0          0        0.0          -          -          0
  pseudo solution  :       0.00          0          0          -          0        0.0          0        0.0          -          -          -
  applied globally :       0.04          -          -          0       5552        7.5          -          -        569          -          -
  applied locally  :          -          -          -          0          6       11.0          -          -        976          -          -
Separators         :   ExecTime  SetupTime      Calls  RootCalls    Cutoffs    DomReds  FoundCuts ViaPoolAdd  DirectAdd    Applied ViaPoolApp  DirectApp      Conss
  cut pool         :       0.01          -       5992          0          -          -        375        264          -          -          -          -          -    (maximal pool size:         32)
  aggregation      :       0.61       0.00       1797          8          0          0         25          5         10         11          4          7          0
  > cmir           :          -          -          -          -          -          -          -          5          3          6          4          2          -
  > flowcover      :          -          -          -          -          -          -          -          0          7          5          0          5          -
  > knapsackcover  :          -          -          -          -          -          -          -          0          0          0          0          0          -
  cgmip            :       0.00       0.00          0          0          0          0          0          0          0          0          0          0          0
  clique           :       0.00       0.00          8          8          0          0          0          0          0          0          0          0          0
  closecuts        :       0.00       0.00          0          0          0          0          0          0          0          0          0          0          0
  convexproj       :       0.00       0.00          0          0          0          0          0          0          0          0          0          0          0
  disjunctive      :       0.00       0.00          0          0          0          0          0          0          0          0          0          0          0
  eccuts           :       0.00       0.00          0          0          0          0          0          0          0          0          0          0          0
  gauge            :       0.00       0.00          0          0          0          0          0          0          0          0          0          0          0
  gomory           :       0.96       0.00       1581          8          0          0        299        220          2         58         57          1          0
  > gomorymi       :          -          -          -          -          -          -          -        111          2         38         37          1          -
  > strongcg       :          -          -          -          -          -          -          -        109          0         20         20          0          -
  impliedbounds    :       0.09       0.00       1797          8          0          0          1          0          0          0          0          0          0
  interminor       :       0.00       0.00          0          0          0          0          0          0          0          0          0          0          0
  intobj           :       0.00       0.00          0          0          0          0          0          0          0          0          0          0          0
  mcf              :       0.00       0.00          1          1          0          0          0          0          0          0          0          0          0
  minor            :       0.00       0.00          0          0          0          0          0          0          0          0          0          0          0
  mixing           :       0.11       0.00       7075          9          0          0          0          0          0          0          0          0          0
  oddcycle         :       0.00       0.00          0          0          0          0          0          0          0          0          0          0          0
  rapidlearning    :       0.02       0.00          0          0          0          0          0          0          0          0          0          0          0
  rlt              :       0.00       0.00          9          9          0          0          0          0          0          0          0          0          0
  zerohalf         :       0.19       0.00       1581          8          0          0         65         39          3         25         22          3          0
Cutselectors       :   ExecTime  SetupTime      Calls  RootCalls   Selected     Forced   Filtered  RootSelec   RootForc   RootFilt 
  hybrid           :       2.93       0.00     741240          8    3526915      11149    2267709         41          0         57
Pricers            :   ExecTime  SetupTime      Calls       Vars
  problem variables:       0.00          -          0          0
Branching Rules    :   ExecTime  SetupTime   BranchLP  BranchExt   BranchPS    Cutoffs    DomReds       Cuts      Conss   Children
  allfullstrong    :       0.00       0.00          0          0          0          0          0          0          0          0
  cloud            :       0.00       0.00          0          0          0          0          0          0          0          0
  distribution     :       0.00       0.00          0          0          0          0          0          0          0          0
  fullstrong       :       0.00       0.00          0          0          0          0          0          0          0          0
  inference        :       0.00       0.00          0          0          0          0          0          0          0          0
  leastinf         :       0.00       0.00          0          0          0          0          0          0          0          0
  lookahead        :       0.00       0.00          0          0          0          0          0          0          0          0
  mostinf          :       0.00       0.00          0          0          0          0          0          0          0          0
  multaggr         :       0.00       0.00          0          0          0          0          0          0          0          0
  nodereopt        :       0.00       0.00          0          0          0          0          0          0          0          0
  pscost           :       0.26       0.00          0      10087          0          0          0          0          0      20174
  random           :       0.00       0.00          0          0          0          0          0          0          0          0
  relpscost        :      43.39       0.00      74970          0          0          0      41884          0       2782     141108
  vanillafullstrong:       0.00       0.00          0          0          0          0          0          0          0          0
Primal Heuristics  :   ExecTime  SetupTime      Calls      Found       Best
  LP solutions     :       0.00          -          -          0          0
  relax solutions  :       0.00          -          -          0          0
  pseudo solutions :       0.00          -          -          0          0
  strong branching :       0.88          -          -          0          0
  actconsdiving    :       0.00       0.00          0          0          0
  adaptivediving   :       0.86       0.00       1321          0          0
  alns             :      19.38       0.00         18          1          1
  bound            :       0.00       0.00          0          0          0
  clique           :       0.01       0.00          1          0          0
  coefdiving       :       0.00       0.00          0          0          0
  completesol      :       0.00       0.00          0          0          0
  conflictdiving   :       1.75       0.00      13254          0          0
  crossover        :     180.37       0.00         10          0          0
  dins             :       0.00       0.00          0          0          0
  distributiondivin:       9.90       0.00       1498          0          0
  dps              :       0.00       0.00          0          0          0
  dualval          :       0.00       0.00          0          0          0
  farkasdiving     :       0.01       0.00          0          0          0
  feaspump         :       2.76       0.00        749          0          0
  fixandinfer      :       0.00       0.00          0          0          0
  fracdiving       :       1.66       0.00      13087          0          0
  gins             :       0.08       0.00          0          0          0
  guideddiving     :       2.51       0.00      13204          0          0
  indicator        :       0.24       0.00          0          0          0
  indicatordiving  :       0.00       0.00          0          0          0
  intdiving        :       0.00       0.00          0          0          0
  intshifting      :       0.16       0.00         89          0          0
  linesearchdiving :       1.90       0.00      13259          0          0
  localbranching   :       0.00       0.00          0          0          0
  locks            :       0.01       0.00          1          0          0
  lpface           :       0.09       0.00          1          0          0
  mpec             :      16.77       0.00         11          0          0
  multistart       :       0.00       0.00          0          0          0
  mutation         :       0.00       0.00          0          0          0
  nlpdiving        :       0.98       0.00          9          0          0
  objpscostdiving  :       1.89       0.00        749          0          0
  octane           :       0.00       0.00          0          0          0
  ofins            :       0.05       0.00          0          0          0
  oneopt           :       0.11       0.00          6          0          0
  padm             :       0.00       0.00          0          0          0
  proximity        :       0.00       0.00          0          0          0
  pscostdiving     :       3.43       0.00       1498          0          0
  randrounding     :       0.26       0.00      15279          0          0
  rens             :       5.43       0.00          1          0          0
  reoptsols        :       0.00       0.00          0          0          0
  repair           :       0.00       0.00          0          0          0
  rins             :      18.96       0.00         26          0          0
  rootsoldiving    :       2.40       0.00        749          0          0
  rounding         :       0.42       0.00       7304          0          0
  shiftandpropagate:       0.01       0.00          1          0          0
  shifting         :       0.29       0.00       2291          0          0
  simplerounding   :       0.29       0.00          0          0          0
  subnlp           :      11.34       0.00         67          5          5
  trivial          :       0.00       0.00          2          0          0
  trivialnegation  :       0.00       0.00          0          0          0
  trustregion      :       0.00       0.00          0          0          0
  trysol           :       0.15       0.00          0          0          0
  twoopt           :       0.00       0.00          0          0          0
  undercover       :       0.00       0.00          1          0          0
  vbounds          :       0.00       0.00          0          0          0
  veclendiving     :       1.48       0.00      13209          0          0
  zeroobj          :       0.00       0.00          0          0          0
  zirounding       :       0.08       0.00       1000          0          0
  other solutions  :          -          -          -          0          -
Expressions        :   #IntEval  IntEvalTi   #RevProp  RevPropTi    DomReds    Cutoffs  #Estimate  EstimTime  Branching  #Simplify SimplifyTi Simplified
  pow              :     606683       0.34         61       0.00         45          0    5765169       1.31      48504         42       0.00          0
  prod             :    4429627       1.22    1344657       1.11       3383        478   60575895    1807.34    7365460        213       0.00        106
  sum              :    6867640       2.05    5304103       2.87     379256         19       1188       0.00          0        195       0.00        106
  val              :          0       0.00          0       0.00          0          0          0       0.00          0          0       0.00          0
  var              :    7410741       0.41          0       0.00          0          0          0       0.00          0        855       0.00          6
  varidx           :          0       0.00          0       0.00          0          0          0       0.00          0          0       0.00          0
Nlhdlrs            :    Detects  DetectAll DetectTime   #IntEval  IntEvalTi   #RevProp  RevPropTi    DomReds    Cutoffs   #Enforce   EnfoTime       Cuts  Branching
  soc              :          0          0       0.00          0       0.00          0       0.00          0          0          0       0.00          0          0
  convex           :          0          0       0.00          0       0.00          0       0.00          0          0          0       0.00          0          0
  concave          :          0          0       0.00          0       0.00          0       0.00          0          0          0       0.00          0          0
  signomial        :         21         21       0.00          0       0.00          0       0.00          0          0   40986740      10.27     444403          0
  quotient         :          0          0       0.00          0       0.00          0       0.00          0          0          0       0.00          0          0
  quadratic        :          1          7       0.00     610907      16.33     610827      26.22       2495          0          0       0.00          0          0
  default          :        338       2102       0.00   11904979       4.46    6649556       7.95     382684        517   66342187    1886.95    5361511          0
  bilinear         :         43         43       0.00          0       0.00          0       0.00          0          0   37865036       3.05          0          0
  perspective      :          0          0       0.00          0       0.00          0       0.00          0          0          0       0.00          0          0
LP                 :       Time      Calls Iterations  Iter/call   Iter/sec  Time-0-It Calls-0-It    ItLimit
  primal LP        :      95.22     123935        251      83.67       2.64      95.20     123932
  dual LP          :     862.89    1008781   18814596      19.88   21804.18      26.86      62432
  lex dual LP      :       0.00          0          0       0.00          -
  barrier LP       :       0.00          0          0       0.00          -       0.00          0
  resolve instable :       0.33         24      11200     466.67   34396.77
  diving/probing LP:      14.82      11595     113289       9.77    7645.80
  strong branching :      19.31      19114     240933      12.61   12477.03          -          -       1728
    (at root node) :          -         19        209      11.00          -
  conflict analysis:       0.00          0          0       0.00          -
NLP relaxation     :
  solve time       :       0.97 (9 calls)
  convexity        :  nonconvex (247 linear rows, 0 convex ineq., 0 nonconvex ineq., 22 nonlinear eq. or two-sided ineq.)
NLP Solvers        :  #Problems  ProblemTi    #Solves  SolveTime      #Iter  Time/Iter      #Okay #TimeLimit #IterLimit #LObjLimit #Interrupt  #NumError #EvalError  #OutOfMem #LicenseEr #OtherTerm   #GlobOpt    #LocOpt  #Feasible #LocInfeas #GlobInfea #Unbounded   #Unknown
  ipopt            :         80       1.71         85      28.06       8778       0.00         57          0         26          0          0          2          0          0          0          0          0          6          0         42          0          0         37
B&B Tree           :
  number of runs   :          1
  nodes            :     231603 (200960 internal, 30643 leaves)
  feasible leaves  :          0
  infeas. leaves   :      13161
  objective leaves :      17481
  nodes (total)    :     231603 (200960 internal, 30643 leaves)
  nodes left       :     170184
  max depth        :         75
  max depth (total):         75
  backtracks       :      42023 (18.1%)
  early backtracks :          0 (0.0%)
  nodes exc. ref.  :          0 (0.0%)
  delayed cutoffs  :         63
  repropagations   :      31719 (71422 domain reductions, 2 cutoffs)
  avg switch length:       7.00
  switching time   :     138.10
Root Node          :
  First LP value   : +6.09924000000000e+04
  First LP Iters   :         36 (16430.85 Iter/sec)
  First LP Time    :       0.00
  Final Dual Bound : +2.24527396526376e+04
  Final Root Iters :        162
  Root LP Estimate : +2.08301962327892e+04
Solution           :
  Solutions found  :          6 (6 improvements)
  First Solution   : +1.14139874288093e+02   (in run 1, after 2374 nodes, 50.46 seconds, depth 17, found by <adaptivediving>)
  Gap First Sol.   :   12009.84 %
  Gap Last Sol.    :    1111.04 %
  Primal Bound     : +6.74324147463178e+02   (in run 1, after 108917 nodes, 1858.98 seconds, depth 20, found by <alns>)
  Dual Bound       : +7.88282361385196e+03
  Gap              :    1069.00 %
Integrals          :      Total       Avg%
  primal-dual      :  305340.00      84.82
  primal-ref       :          -          - (not evaluated)
  dual-ref         :          -          - (not evaluated)
